p cnf 10 50
-6 -7 -8 0
-7 -8 9 0
3 7 5 0
-8 -10 -7 0
-6 5 -4 0
-9 -2 3 0
-3 -1 9 0
-8 -10 -2 0
8 -9 5 0
4 3 -8 0
-6 10 9 0
9 -6 -2 0
-9 -5 2 0
-2 10 5 0
-10 2 -1 0
6 8 -3 0
-5 10 -2 0
-2 -8 -4 0
-3 -10 4 0
1 -9 -3 0
-2 4 -3 0
4 -5 3 0
6 7 3 0
1 4 10 0
-1 -9 6 0
-8 10 -9 0
10 5 -6 0
7 -1 3 0
-1 8 -9 0
6 10 1 0
-1 -2 -8 0
-1 -4 3 0
-2 -3 1 0
4 -7 5 0
2 4 -8 0
7 -4 -8 0
-3 -10 -9 0
2 1 10 0
-5 7 -8 0
-2 10 -7 0
-9 -3 10 0
5 9 6 0
3 -1 2 0
6 -3 -2 0
-6 -2 5 0
-6 7 4 0
-2 6 -8 0
-3 10 -1 0
10 -9 1 0
3 -10 7 0